dates = {'2021-12-05','2021-12-06','2021-12-07','2021-12-08','2021-12-09','2021-12-10','2021-12-11','2021-12-12','2021-12-13','2021-12-14','2021-12-15','2021-12-16','2021-12-17','2021-12-18','2021-12-19','2021-12-20','2021-12-21','2021-12-22','2021-12-23','2021-12-24','2021-12-25'};

daysOfWeek = [Sunday,Monday,Tuesday,Wednesday,Thursday,Friday,Saturday,Sunday,Monday,Tuesday,Wednesday,Thursday,Friday,Saturday,Sunday,Monday,Tuesday,Wednesday,Thursday,Friday,Saturday];

winter = false;

% For this week, how many people will be here.
numPeople = [125,125,125,125,124,124,124,124,119,119,127,135,154,154,154,146,146,144
,153,152,152];

% Physical workers need 50 to 100 % more nutrients per day.
numPhysicalWorkers = [46.5,46.5,46.5,46.5,46.5,45.5,45.5,45.5,45.5,43.5,44.0,44.0,53.5,53.5
,53.5,53.5,53.5,53.5,56.0,56.0,55.0];

% Males need +25% more nutrients per day.
numMen = [96,96,96,96,96,95,95,95,100,94,101,108,126,126,126,126,119,119
,128,128,127];

% Num people who do not eat categories. contains = {none, meat, milk, gluten, egg, nut, seed, sugars}
numRefusals = [| 0,7,0,5,0,3,0,0 | 0,7,0,5,0,3,0,0 | 0,7,0,5,0,3,0,0 | 0,7,0,5,0,3,0,0 | 0,6,5,4,0,0,0,0 | 0,6,5,4,0,0,0,0 | 0,6,5,4,0,0,0,0 | 0,6,5,4,0,0,0,0 | 0,0,5,9,0,0,0,0 | 0,0,5,9,0,0,0,0 | 0,1,5,0,1,0,4,6 | 0,0,0,2,10,7,0,0 | 0,19,9,0,6,12,10,0 | 0,19,9,0,6,12,10,0 | 0,19,9,0,6,12,10,0 | 0,14,0,0,0,7,19,0 | 0,14,0,0,0,7,19,0 | 0,0,5,4,8,0,4,0 | 0,0,6,11,2,0,1,7 | 0,0,3,0,4,0,7,9 | 0,0,3,0,4,0,7,9 |];

